computational_data/solutions/Reg3_n40_s9.sol
Optimal - objective value 18.00000000
      0 r_0                         1                       1
     15 r_15                        1                       1
     16 r_16                        1                       1
     29 r_29                        1                       1
     34 r_34                        1                       1
     35 r_35                        1                       1
     37 r_37                        1                       1
     38 r_38                        1                       1
     39 r_39                        1                       1
     42 b_2                         1                       1
     44 b_4                         1                       1
     46 b_6                         1                       1
     48 b_8                         1                       1
     49 b_9                         1                       1
     51 b_11                        1                       1
     62 b_22                        1                       1
     67 b_27                        1                       1
     71 b_31                        1                       1
